c Result of efficient AIG-to-CNF conversion using package CNF
p cnf 230 724
-2 3 157 164 165 0
2 -165 0
2 -164 0
2 -3 0
2 -157 0
3 -195 227 -4 0
3 -195 -4 -87 0
-3 195 0
-3 4 0
-3 -227 87 0
4 -227 5 84 0
-4 227 0
-4 -84 0
-4 -5 0
5 6 -17 0
5 6 -50 0
5 6 -27 0
-5 -6 0
-5 17 27 50 0
-6 7 13 15 16 0
6 -16 0
6 -7 0
6 -15 0
6 -13 0
-7 222 223 8 10 0
7 -222 0
7 -10 0
7 -8 0
7 -223 0
-8 214 220 221 9 0
8 -9 0
8 -221 0
8 -214 0
8 -220 0
-9 218 219 224 0
9 -218 0
9 -224 0
9 -219 0
-10 215 216 217 11 0
10 -11 0
10 -217 0
10 -215 0
10 -216 0
-11 210 211 12 0
11 -12 0
11 -211 0
11 -210 0
-12 206 207 212 213 0
12 -213 0
12 -212 0
12 -206 0
12 -207 0
-13 204 208 209 14 0
13 -14 0
13 -209 0
13 -204 0
13 -208 0
-14 202 203 0
14 -202 0
14 -203 0
-15 198 205 0
15 -198 0
15 -205 0
-16 199 200 201 0
16 -199 0
16 -201 0
16 -200 0
17 -225 -18 0
17 -226 -18 0
-17 18 0
-17 225 226 0
-18 -227 19 0
-18 19 20 23 0
18 -19 0
18 227 -23 0
18 227 -20 0
19 -197 228 229 0
-19 197 0
-19 -229 0
-19 -228 0
20 228 -21 0
20 -228 -22 0
-20 -228 22 0
-20 228 21 0
21 -194 -229 0
21 -193 229 0
-21 193 229 0
-21 194 -229 0
22 -196 -229 0
22 -195 229 0
-22 195 229 0
-22 196 -229 0
-23 -228 24 26 0
-23 24 25 26 0
23 -26 0
23 -24 0
23 228 -25 0
24 228 -22 0
24 -197 -228 229 0
-24 228 22 0
-24 -228 -229 0
-24 197 -228 0
25 -195 -229 0
25 -194 229 0
-25 194 229 0
-25 195 -229 0
26 -197 -229 0
26 -196 229 0
-26 196 229 0
-26 197 -229 0
27 225 -28 0
27 226 -28 0
-27 28 0
-27 -225 -226 0
-28 -227 29 43 0
-28 227 36 43 0
28 -43 0
28 -227 -29 0
28 227 -36 0
-29 20 30 0
29 -20 0
29 -30 0
-30 -228 31 32 0
-30 228 32 35 0
30 -32 0
30 228 -35 0
30 -228 -31 0
31 -193 -229 0
31 -192 229 0
-31 192 229 0
-31 193 -229 0
-32 -228 33 0
-32 228 34 31 0
32 228 -31 0
32 -228 -33 0
32 228 -34 0
-33 194 195 -229 0
-33 193 194 229 0
33 -194 0
33 -193 229 0
33 -195 -229 0
34 -192 -229 0
34 -191 229 0
-34 191 229 0
-34 192 -229 0
35 -191 -229 0
35 -190 229 0
-35 190 229 0
-35 191 -229 0
-36 228 37 39 0
-36 -228 38 39 0
36 -39 0
36 228 -37 0
36 -228 -38 0
37 -183 -229 0
37 -182 229 0
-37 182 229 0
-37 183 -229 0
38 -185 -229 0
38 -184 229 0
-38 184 229 0
-38 185 -229 0
-39 185 229 40 0
-39 186 -229 40 0
39 -40 0
39 -186 -229 0
39 -185 229 0
-40 -228 41 0
-40 228 38 42 0
40 228 -38 0
40 -228 -41 0
40 228 -42 0
-41 187 188 -229 0
-41 186 187 229 0
41 -187 0
41 -186 229 0
41 -188 -229 0
42 -184 -229 0
42 -183 229 0
-42 183 229 0
-42 184 -229 0
-43 228 44 49 0
-43 -228 44 48 0
43 -44 0
43 -228 -48 0
43 228 -49 0
-44 189 229 45 0
-44 190 -229 45 0
44 -45 0
44 -190 -229 0
44 -189 229 0
45 228 -46 0
45 -228 -47 0
-45 -228 47 0
-45 228 46 0
46 -187 -229 0
46 -186 229 0
-46 186 229 0
-46 187 -229 0
47 -189 -229 0
47 -188 229 0
-47 188 229 0
-47 189 -229 0
-48 191 192 -229 0
-48 190 191 229 0
48 -191 0
48 -190 229 0
48 -192 -229 0
-49 188 189 -229 0
-49 187 188 229 0
49 -188 0
49 -187 229 0
49 -189 -229 0
-50 -225 51 0
-50 51 59 80 0
50 -51 0
50 225 -80 0
50 225 -59 0
-51 -227 23 52 0
-51 227 30 52 0
51 -52 0
51 -227 -23 0
51 227 -30 0
52 225 -226 -53 0
-52 -225 0
-52 226 0
-52 53 0
-53 -227 56 0
-53 227 54 55 0
53 227 -54 0
53 -227 -56 0
53 227 -55 0
54 -176 -228 229 0
54 -177 -228 -229 0
-54 228 0
-54 177 -229 0
-54 176 229 0
55 -174 228 229 0
55 -175 228 -229 0
-55 -228 0
-55 175 -229 0
-55 174 229 0
56 228 -57 0
56 -228 -58 0
-56 -228 58 0
-56 228 57 0
57 -179 -229 0
57 -178 229 0
-57 178 229 0
-57 179 -229 0
58 -181 -229 0
58 -180 229 0
-58 180 229 0
-58 181 -229 0
59 226 -60 0
59 226 -78 0
-59 -226 0
-59 60 78 0
60 -227 -75 0
60 227 -61 0
60 -227 -70 0
-60 227 61 0
-60 -227 70 75 0
-61 228 62 66 0
-61 62 65 66 0
61 -66 0
61 -62 0
61 -228 -65 0
-62 170 171 63 0
-62 170 229 63 0
62 -170 0
62 -63 0
62 -171 -229 0
63 -168 64 0
63 -169 -229 64 0
-63 -64 0
-63 168 229 0
-63 168 169 0
64 173 -228 -229 0
64 172 -228 229 0
-64 228 0
-64 -172 229 0
-64 -173 -229 0
-65 172 173 -229 0
-65 171 172 229 0
65 -172 0
65 -171 229 0
65 -173 -229 0
-66 228 67 69 0
-66 -228 67 68 0
66 -67 0
66 -228 -68 0
66 228 -69 0
67 -169 229 0
67 -167 229 64 0
-67 -229 0
-67 169 -64 0
-67 167 169 0
-68 168 229 0
-68 169 -229 0
68 -169 -229 0
68 -168 229 0
-69 166 229 0
-69 167 -229 0
69 -167 -229 0
69 -166 229 0
-70 56 71 72 0
70 -56 0
70 -72 0
70 -71 0
71 -178 -229 0
71 -177 229 0
-71 177 229 0
-71 178 -229 0
72 -228 -57 0
72 228 -73 0
72 -228 -74 0
-72 228 73 0
-72 -228 57 74 0
-73 176 177 -229 0
-73 175 176 229 0
73 -176 0
73 -175 229 0
73 -177 -229 0
74 -180 -229 0
74 -179 229 0
-74 179 229 0
-74 180 -229 0
-75 76 77 0
-75 -228 76 0
75 -76 0
75 228 -77 0
76 -173 -229 0
76 -172 229 0
-76 172 229 0
-76 173 -229 0
77 -171 -229 0
77 -170 229 0
-77 170 229 0
-77 171 -229 0
-78 228 65 79 0
-78 -228 73 79 0
78 -79 0
78 -228 -73 0
78 228 -65 0
-79 174 175 -229 0
-79 173 174 229 0
79 -174 0
79 -173 229 0
79 -175 -229 0
-80 -227 36 81 0
-80 227 70 81 0
80 -81 0
80 -227 -36 0
80 227 -70 0
-81 181 229 82 0
-81 182 -229 82 0
81 -82 0
81 -182 -229 0
81 -181 229 0
82 228 -58 0
82 -228 -83 0
82 228 -74 0
-82 -228 83 0
-82 228 58 74 0
-83 183 184 -229 0
-83 182 183 229 0
83 -183 0
83 -182 229 0
83 -184 -229 0
84 -85 86 0
-84 85 0
-84 -86 0
85 -227 -19 0
85 227 -20 0
-85 227 20 0
-85 -227 19 0
-86 225 226 6 0
86 -6 0
86 -226 0
86 -225 0
-87 -86 104 0
-87 88 97 104 0
87 -104 0
87 86 -88 0
87 86 -97 0
-88 227 89 92 95 0
88 -95 0
88 -92 0
88 -227 0
88 -89 0
89 228 -90 0
89 -228 -91 0
-89 -228 91 0
-89 228 90 0
90 -223 -229 0
90 -222 229 0
-90 222 229 0
-90 223 -229 0
91 -225 -229 0
91 -224 229 0
-91 224 229 0
-91 225 -229 0
92 228 -93 0
92 -228 -94 0
-92 -228 94 0
-92 228 93 0
93 -224 -229 0
93 -223 229 0
-93 223 229 0
-93 224 -229 0
94 -226 -229 0
94 -225 229 0
-94 225 229 0
-94 226 -229 0
95 228 -91 0
95 -228 -96 0
-95 -228 96 0
-95 228 91 0
96 -227 -229 0
96 -226 229 0
-96 226 229 0
-96 227 -229 0
-97 -227 98 0
-97 227 100 102 0
97 227 -102 0
97 -227 -98 0
97 227 -100 0
-98 -228 94 99 0
-98 228 93 94 0
98 -94 0
98 -228 -99 0
98 228 -93 0
-99 227 229 0
99 -227 0
99 -229 0
100 -228 -93 0
100 228 -101 0
-100 228 101 0
-100 -228 93 0
101 -222 -229 0
101 -221 229 0
-101 221 229 0
-101 222 -229 0
102 -228 -101 0
102 228 -103 0
-102 228 103 0
-102 -228 101 0
103 -220 -229 0
103 -219 229 0
-103 219 229 0
-103 220 -229 0
104 -226 6 0
104 6 -105 0
104 6 -128 0
-104 -6 0
-104 226 105 128 0
-105 106 119 122 125 0
105 -119 0
105 -125 0
105 -106 0
105 -122 0
-106 227 107 109 0
-106 -227 100 109 0
106 -109 0
106 227 -107 0
106 -227 -100 0
107 -228 -103 0
107 228 -108 0
-107 228 108 0
-107 -228 103 0
108 -218 -229 0
108 -217 229 0
-108 217 229 0
-108 218 -229 0
-109 -227 110 116 0
-109 227 110 113 0
109 -110 0
109 -227 -116 0
109 227 -113 0
110 -227 -95 0
110 227 -111 0
-110 227 111 0
-110 -227 95 0
111 -228 -90 0
111 228 -112 0
-111 228 112 0
-111 -228 90 0
112 -221 -229 0
112 -220 229 0
-112 220 229 0
-112 221 -229 0
113 228 -114 0
113 -228 -115 0
-113 -228 115 0
-113 228 114 0
114 -201 -229 0
114 -200 229 0
-114 200 229 0
-114 201 -229 0
115 -203 -229 0
115 -202 229 0
-115 202 229 0
-115 203 -229 0
116 228 -117 0
116 -228 -118 0
-116 -228 118 0
-116 228 117 0
117 -205 -229 0
117 -204 229 0
-117 204 229 0
-117 205 -229 0
118 -207 -229 0
118 -206 229 0
-118 206 229 0
-118 207 -229 0
-119 208 229 120 0
-119 209 -229 120 0
119 -120 0
119 -209 -229 0
119 -208 229 0
120 228 -118 0
120 -228 -121 0
-120 -228 121 0
-120 228 118 0
121 -211 -229 0
121 -210 229 0
-121 210 229 0
-121 211 -229 0
122 -228 -123 0
122 227 -228 -124 0
-122 228 0
-122 -227 123 0
-122 123 124 0
123 -208 -229 0
123 -207 229 0
-123 207 229 0
-123 208 -229 0
124 -204 -229 0
124 -203 229 0
-124 203 229 0
-124 204 -229 0
125 228 -126 0
125 227 228 -127 0
-125 -228 0
-125 -227 126 0
-125 126 127 0
126 -206 -229 0
126 -205 229 0
-126 205 229 0
-126 206 -229 0
127 -202 -229 0
127 -201 229 0
-127 201 229 0
-127 202 -229 0
-128 129 149 153 155 0
128 -155 0
128 -129 0
128 -153 0
128 -149 0
-129 130 141 146 148 0
129 -148 0
129 -146 0
129 -130 0
129 -141 0
130 -227 -137 0
130 227 -131 0
130 -227 -134 0
-130 227 131 0
-130 -227 134 137 0
-131 116 132 0
131 -116 0
131 -132 0
-132 -228 133 0
-132 228 115 124 0
132 228 -115 0
132 -228 -133 0
132 228 -124 0
-133 205 206 -229 0
-133 204 205 229 0
133 -205 0
133 -204 229 0
133 -206 -229 0
-134 212 229 135 0
-134 213 -229 135 0
134 -135 0
134 -213 -229 0
134 -212 229 0
135 228 -121 0
135 -228 -136 0
-135 -228 136 0
-135 228 121 0
136 -215 -229 0
136 -214 229 0
-136 214 229 0
-136 215 -229 0
-137 213 229 138 0
-137 214 -229 138 0
137 -138 0
137 -214 -229 0
137 -213 229 0
138 228 -139 0
138 -228 -140 0
-138 -228 140 0
-138 228 139 0
139 -212 -229 0
139 -211 229 0
-139 211 229 0
-139 212 -229 0
140 -216 -229 0
140 -215 229 0
-140 215 229 0
-140 216 -229 0
141 227 -142 0
141 -227 -144 0
-141 -227 144 0
-141 227 142 0
142 228 -136 0
142 -228 -143 0
-142 -228 143 0
-142 228 136 0
143 -217 -229 0
143 -216 229 0
-143 216 229 0
-143 217 -229 0
144 -228 -112 0
144 228 -145 0
-144 228 145 0
-144 -228 112 0
145 -219 -229 0
145 -218 229 0
-145 218 229 0
-145 219 -229 0
146 -227 -102 0
146 227 -147 0
-146 227 147 0
-146 -227 102 0
147 -228 -108 0
147 228 -140 0
-147 228 140 0
-147 -228 108 0
148 -227 -107 0
148 227 -137 0
148 -227 -147 0
-148 227 137 0
-148 -227 107 147 0
-149 -227 89 150 0
-149 227 144 150 0
149 -150 0
149 227 -144 0
149 -227 -89 0
150 -227 -132 0
150 227 -151 0
-150 -227 132 0
-150 227 151 0
151 -228 -114 0
151 228 -152 0
151 -228 -127 0
-151 228 152 0
-151 -228 114 127 0
-152 199 200 -229 0
-152 198 199 229 0
152 -199 0
152 -198 229 0
152 -200 -229 0
-153 209 229 154 0
-153 210 -229 154 0
153 -154 0
153 -210 -229 0
153 -209 229 0
154 228 -123 0
154 -228 -139 0
-154 -228 139 0
-154 228 123 0
-155 225 -227 156 0
-155 225 227 134 0
155 -225 0
155 -227 -156 0
155 227 -134 0
-156 -228 143 145 0
-156 228 136 143 0
156 -143 0
156 228 -136 0
156 -228 -145 0
157 -196 -87 -158 0
157 -196 -158 163 0
-157 196 0
-157 158 0
-157 87 -163 0
158 5 84 -159 0
-158 159 0
-158 -84 0
-158 -5 0
159 -228 -86 0
159 -228 160 162 0
-159 228 0
-159 86 -160 0
-159 86 -162 0
160 227 -161 0
-160 -227 0
-160 161 0
161 228 -25 0
161 -228 -26 0
-161 -228 26 0
-161 228 25 0
162 227 -24 0
-162 -227 0
-162 24 0
163 -227 -228 0
163 -228 -86 0
-163 228 0
-163 227 86 0
164 -194 -226 5 -87 0
-164 226 0
-164 87 0
-164 194 0
-164 -5 0
165 -193 -225 5 -87 0
-165 225 0
-165 87 0
-165 193 0
-165 -5 0
-230 0
2 0

